NAME : kroE100-C-5-1-a__scheduled_bias_same_priority_ls20__25771.tour
COMMENT : Length = 25771.000
COMMENT : Generated by evaluate_ctspd.py for scheduled_bias_same_priority_ls20
TYPE : TOUR
DIMENSION : 100
TOUR_SECTION
8
52
14
44
72
89
81
71
61
1
35
40
25
54
45
99
17
84
62
49
20
15
56
64
23
28
36
95
59
98
32
58
63
12
51
69
47
3
46
26
79
16
73
83
74
21
7
76
88
97
65
31
57
80
10
50
60
9
75
41
87
27
67
82
92
4
2
11
70
96
85
77
37
6
13
66
30
93
91
55
34
53
78
100
29
24
18
94
19
86
43
39
22
33
38
68
48
90
42
5
-1
EOF
